&CONTROL
  calculation = 'bands',
  prefix = 'kaol',
  pseudo_dir = '/home/rygrim1/bennettj_user/Work/Lead_oxides/PbCO3_14/Surface_calcs/QE_calcs/QE-PSPs/',
  outdir = './temp',
  etot_conv_thr=1.D-7,
  forc_conv_thr=2.D-6,
  verbosity=high,
/
&SYSTEM
  ibrav = 14,
  celldm(1) = 19.56952,
  celldm(2) = 0.868195,
  celldm(3) = 2.483480,
  celldm(4) = -0.0281,
  celldm(5) = -0.2552,
  celldm(6) =  0.0039,
  nat = 73,
  ntyp = 6,
  nbnd = 314,
  ecutwfc = 40,
  ecutrho = 320,
  occupations = 'smearing',
  smearing = 'gaussian',
  degauss = 0.02,
  input_dft = 'wc',
/
&ELECTRONS
  electron_maxstep = 150,
  diagonalization = 'david',
  conv_thr = 1.0d-7,
  mixing_beta = 0.20,
/
&IONS
/
ATOMIC_SPECIES
Al   26.982  al_pbe_v1.uspp.F.UPF
Si   28.085  si_pbe_v1.uspp.F.UPF
O    15.9999  o_pbe_v1.2.uspp.F.UPF
H     1.0078  h_pbe_v1.4.uspp.F.UPF
C    12.0067  c_pbe_v1.2.uspp.F.UPF
Na   22.9898 na_pbe_v1.5.uspp.F.UPF
ATOMIC_POSITIONS {crystal}
Al       0.185579669   0.496876898   0.128058896
Al       0.189094361   0.830850257   0.132451248
Al       0.440940920  -0.003610810   0.132507528
Al       0.440028098   0.329658991   0.131803891
Al       0.691301640   0.499509542   0.132871678
Al       0.692406494   0.830789821   0.133032115
Al       0.944232221  -0.002864773   0.132503657
Al       0.940776586   0.334311304   0.131874324
Si       0.037831166   0.335985717   0.021417001
Si       0.045063332   0.665579913   0.022185670
Si       0.288781481   0.835751330   0.023451524
Si       0.297062421   0.164040651   0.023087971
Si       0.540241254   0.336701572   0.023713655
Si       0.547094748   0.664423725   0.023963787
Si       0.788305059   0.837367116   0.023435287
Si       0.797889783   0.164305221   0.023250366
O        0.065464796   0.353326473   0.087108829
O        0.103954776   0.661523284   0.087824831
O        0.050807618   0.498028913  -0.003268519
O        0.142291128   0.218157897   0.005853210
O        0.137869792   0.773444335  -0.002774093
O        0.316054938   0.853209665   0.089080873
O        0.566809381   0.355141158   0.089371386
O        0.605268887   0.661432054   0.089413321
O        0.552519747   0.497401004  -0.001828021
O        0.642632923   0.216813652   0.008008192
O        0.637210166   0.774152846  -0.001641526
O        0.816568840   0.856353818   0.089076956
O        0.353916310   0.160760352   0.088799769
O        0.303077334  -0.003624606  -0.001973763
O        0.390860700   0.714435563   0.007925129
O        0.389567879   0.272823779  -0.001750496
O        0.066554994  -0.035021891   0.089907838
O        0.857937450   0.162168728   0.088768640
O        0.801057997  -0.002697632  -0.002547444
O        0.890072886   0.717742555   0.006754013
O        0.887446074   0.271957162  -0.003544694
O        0.568272591  -0.032973069   0.091890822
O        0.030829751   0.170436671   0.170631358
O        0.066417556   0.473975369   0.172519536
O        0.064946040   0.859512478   0.173137826
O        0.318542651   0.467536460   0.090511806
O        0.280911857   0.660475796   0.172643694
O        0.310852313  -0.023984530   0.171105849
O        0.304446383   0.350265833   0.171304682
O        0.520299564   0.167003418   0.173803320
O        0.555541351   0.479735477   0.173179456
O        0.565344594   0.862231040   0.173797798
O        0.817983178   0.470120279   0.091278030
O        0.768347645   0.667269838   0.173481495
O        0.812868193  -0.016363344   0.173352583
O        0.809892155   0.352555145   0.172918692
H        0.102344328   0.052136616   0.076046966
H        0.051171467   0.175827790   0.209874316
H        0.036424761   0.553321765   0.195114804
H        0.047545024   0.790915823   0.200322898
H        0.342114982   0.540105820   0.066549820
H        0.371716573   0.652943560   0.167004436
H        0.328449222  -0.007757067   0.209933352
H        0.255423589   0.255312918   0.169896932
H        0.596519383   0.047858104   0.072357381
H        0.615954078   0.153069952   0.189528968
H        0.597421714   0.457024075   0.210740326
H        0.548487857   0.779385948   0.194952873
H        0.850752035   0.556625022   0.075863019
H        0.850341767   0.668240870   0.204114160
H        0.847559939  -0.039189173   0.211414871
H        0.774458587   0.251450596   0.173732141
O        0.005157399   0.671585373   0.243663135
C        0.062618822   0.638049482   0.292425823
O        0.173131830   0.576544027   0.308086015
H        0.005979729   0.668004615   0.322948162
Na       0.272686430   0.501377111   0.244292456
K_POINTS 
101

  0.00000 -0.50000  0.00000 1.0  # X
  0.00000 -0.45000  0.00000 1.0
  0.00000 -0.40000  0.00000 1.0
  0.00000 -0.35000  0.00000 1.0
  0.00000 -0.30000  0.00000 1.0
  0.00000 -0.25000  0.00000 1.0
  0.00000 -0.20000  0.00000 1.0
  0.00000 -0.15000  0.00000 1.0
  0.00000 -0.10000  0.00000 1.0
  0.00000 -0.05000  0.00000 1.0
  0.00000  0.00000  0.00000 1.0  # $\Gamma$
  0.05000  0.00000  0.00000 1.0
  0.10000  0.00000  0.00000 1.0
  0.15000  0.00000  0.00000 1.0 
  0.20000  0.00000  0.00000 1.0 
  0.25000  0.00000  0.00000 1.0 
  0.30000  0.00000  0.00000 1.0 
  0.35000  0.00000  0.00000 1.0 
  0.40000  0.00000  0.00000 1.0
  0.45000  0.00000  0.00000 1.0 
  0.50000  0.00000  0.00000 1.0  # Y
  0.50000 -0.05000  0.00000 1.0 
  0.50000 -0.10000  0.00000 1.0 
  0.50000 -0.15000  0.00000 1.0 
  0.50000 -0.20000  0.00000 1.0 
  0.50000 -0.25000  0.00000 1.0 
  0.50000 -0.30000  0.00000 1.0 
  0.50000 -0.35000  0.00000 1.0 
  0.50000 -0.40000  0.00000 1.0 
  0.50000 -0.45000  0.00000 1.0 
  0.50000 -0.50000  0.00000 1.0  # L
  0.45000 -0.45000  0.00000 1.0 
  0.40000 -0.40000  0.00000 1.0 
  0.35000 -0.35000  0.00000 1.0 
  0.30000 -0.30000  0.00000 1.0 
  0.25000 -0.25000  0.00000 1.0 
  0.20000 -0.20000  0.00000 1.0 
  0.15000 -0.15000  0.00000 1.0 
  0.10000 -0.10000  0.00000 1.0 
  0.05000 -0.05000  0.00000 1.0 
  0.00000  0.00000  0.00000 1.0  # $\Gamma$
 -0.05000  0.00000  0.05000 1.0 
 -0.10000  0.00000  0.10000 1.0 
 -0.15000  0.00000  0.15000 1.0 
 -0.20000  0.00000  0.20000 1.0 
 -0.25000  0.00000  0.25000 1.0 
 -0.30000  0.00000  0.30000 1.0 
 -0.35000  0.00000  0.35000 1.0 
 -0.40000  0.00000  0.40000 1.0 
 -0.45000  0.00000  0.45000 1.0 
 -0.50000  0.00000  0.50000 1.0  # Z
 -0.50000 -0.05000  0.50000 1.0
 -0.50000 -0.10000  0.50000 1.0
 -0.50000 -0.15000  0.50000 1.0
 -0.50000 -0.20000  0.50000 1.0
 -0.50000 -0.25000  0.50000 1.0
 -0.50000 -0.30000  0.50000 1.0
 -0.50000 -0.35000  0.50000 1.0
 -0.50000 -0.40000  0.50000 1.0
 -0.50000 -0.45000  0.50000 1.0
 -0.50000 -0.50000  0.50000 1.0  # N
 -0.45000 -0.45000  0.45000 1.0
 -0.40000 -0.40000  0.40000 1.0 
 -0.35000 -0.35000  0.35000 1.0
 -0.30000 -0.30000  0.30000 1.0
 -0.25000 -0.25000  0.25000 1.0
 -0.20000 -0.20000  0.20000 1.0
 -0.15000 -0.15000  0.15000 1.0
 -0.10000 -0.10000  0.10000 1.0
 -0.05000 -0.05000  0.05000 1.0
  0.00000  0.00000  0.00000 1.0  # $\Gamma$
  0.00000  0.00000  0.05000 1.0 
  0.00000  0.00000  0.10000 1.0 
  0.00000  0.00000  0.15000 1.0 
  0.00000  0.00000  0.20000 1.0 
  0.00000  0.00000  0.25000 1.0 
  0.00000  0.00000  0.30000 1.0 
  0.00000  0.00000  0.35000 1.0 
  0.00000  0.00000  0.40000 1.0
  0.00000  0.00000  0.45000 1.0 
  0.00000  0.00000  0.50000 1.0  # M
  0.00000 -0.05000  0.50000 1.0
  0.00000 -0.10000  0.50000 1.0
  0.00000 -0.15000  0.50000 1.0
  0.00000 -0.20000  0.50000 1.0
  0.00000 -0.25000  0.50000 1.0
  0.00000 -0.30000  0.50000 1.0
  0.00000 -0.35000  0.50000 1.0
  0.00000 -0.40000  0.50000 1.0
  0.00000 -0.45000  0.50000 1.0
  0.00000 -0.50000  0.50000 1.0  # R
  0.00000 -0.45000  0.45000 1.0
  0.00000 -0.40000  0.40000 1.0
  0.00000 -0.35000  0.35000 1.0
  0.00000 -0.30000  0.30000 1.0
  0.00000 -0.25000  0.25000 1.0
  0.00000 -0.20000  0.20000 1.0
  0.00000 -0.15000  0.15000 1.0
  0.00000 -0.10000  0.10000 1.0
  0.00000 -0.50000  0.05000 1.0
  0.00000  0.00000  0.00000 1.0  # $\Gamma$
