&CONTROL
  calculation = 'bands',
  prefix = 'kaol',
  pseudo_dir = '/home/rygrim1/bennettj_user/Work/Lead_oxides/PbCO3_14/Surface_calcs/QE_calcs/QE-PSPs/',
  outdir = './temp',
  etot_conv_thr=1.D-7,
  forc_conv_thr=2.D-6,
  verbosity=high,
/
&SYSTEM
  ibrav = 14,
  celldm(1) = 9.78406,
  celldm(2) = 1.73618,
  celldm(3) = 1.41896,
  celldm(4) = -0.0267,
  celldm(5) = -0.2556,
  celldm(6) =  0.0041,
  nat = 34,
  ntyp = 4,
  nbnd = 144,
  ecutwfc = 40,
  ecutrho = 320,
  occupations = 'smearing',
  smearing = 'gaussian',
  degauss = 0.02,
  input_dft = 'wc',
/
&ELECTRONS
  electron_maxstep = 150,
  diagonalization = 'david',
  conv_thr = 1.0d-7,
  mixing_beta = 0.20,
/
&IONS
/
ATOMIC_SPECIES
Al   26.982  al_pbe_v1.uspp.F.UPF
Si   28.085  si_pbe_v1.uspp.F.UPF
O    15.9999  o_pbe_v1.2.uspp.F.UPF
H     1.0078  h_pbe_v1.4.uspp.F.UPF
ATOMIC_POSITIONS {crystal}
Al       0.359871967   0.490721744   0.462020089
Al       0.351560321   0.826866869   0.458763307
Al       0.859833883  -0.009282409   0.462025331
Al       0.851591505   0.326868197   0.458749247
Si       0.058810369   0.336067688   0.071273356
Si       0.072303399   0.664583328   0.072793946
Si       0.558743226   0.836067732   0.071293278
Si       0.572362801   0.164585785   0.072774784
O        0.111439511   0.349663012   0.297203072
O        0.180619678   0.659619284   0.298475195
O        0.066548094   0.497699968  -0.025364245
O        0.267223880   0.226779733  -0.002244080
O        0.261123238   0.765228075  -0.024579003
O        0.611380101   0.849673284   0.297221163
O        0.680640231   0.159633588   0.298458501
O        0.566565979  -0.002312489  -0.025354446
O        0.767130412   0.726738246  -0.002192655
O        0.761219996   0.265193508  -0.024606985
O        0.108369068  -0.034624288   0.306184046
O        0.017767286   0.162846230   0.587865146
O        0.094437884   0.469327006   0.587572894
O        0.096900994   0.853018246   0.594878474
O        0.608405388   0.465384296   0.306173571
O        0.517756327   0.662853591   0.587885383
O        0.594397889  -0.030659370   0.587585160
O        0.596952438   0.353035814   0.594882173
H        0.204972047   0.060390421   0.311251160
H        0.121405221   0.168734775   0.720144929
H        0.102858097   0.497913599   0.719426225
H        0.113750211   0.815171453   0.721810510
H        0.705021556   0.560388674   0.311195297
H        0.621374523   0.668732349   0.720170198
H        0.602867855  -0.002100403   0.719450748
H        0.613794625   0.315192460   0.721814230

K_POINTS 
101

  0.00000 -0.50000  0.00000 1.0  # X
  0.00000 -0.45000  0.00000 1.0
  0.00000 -0.40000  0.00000 1.0
  0.00000 -0.35000  0.00000 1.0
  0.00000 -0.30000  0.00000 1.0
  0.00000 -0.25000  0.00000 1.0
  0.00000 -0.20000  0.00000 1.0
  0.00000 -0.15000  0.00000 1.0
  0.00000 -0.10000  0.00000 1.0
  0.00000 -0.05000  0.00000 1.0
  0.00000  0.00000  0.00000 1.0  # $\Gamma$
  0.05000  0.00000  0.00000 1.0
  0.10000  0.00000  0.00000 1.0
  0.15000  0.00000  0.00000 1.0 
  0.20000  0.00000  0.00000 1.0 
  0.25000  0.00000  0.00000 1.0 
  0.30000  0.00000  0.00000 1.0 
  0.35000  0.00000  0.00000 1.0 
  0.40000  0.00000  0.00000 1.0
  0.45000  0.00000  0.00000 1.0 
  0.50000  0.00000  0.00000 1.0  # Y
  0.50000 -0.05000  0.00000 1.0 
  0.50000 -0.10000  0.00000 1.0 
  0.50000 -0.15000  0.00000 1.0 
  0.50000 -0.20000  0.00000 1.0 
  0.50000 -0.25000  0.00000 1.0 
  0.50000 -0.30000  0.00000 1.0 
  0.50000 -0.35000  0.00000 1.0 
  0.50000 -0.40000  0.00000 1.0 
  0.50000 -0.45000  0.00000 1.0 
  0.50000 -0.50000  0.00000 1.0  # L
  0.45000 -0.45000  0.00000 1.0 
  0.40000 -0.40000  0.00000 1.0 
  0.35000 -0.35000  0.00000 1.0 
  0.30000 -0.30000  0.00000 1.0 
  0.25000 -0.25000  0.00000 1.0 
  0.20000 -0.20000  0.00000 1.0 
  0.15000 -0.15000  0.00000 1.0 
  0.10000 -0.10000  0.00000 1.0 
  0.05000 -0.05000  0.00000 1.0 
  0.00000  0.00000  0.00000 1.0  # $\Gamma$
 -0.05000  0.00000  0.05000 1.0 
 -0.10000  0.00000  0.10000 1.0 
 -0.15000  0.00000  0.15000 1.0 
 -0.20000  0.00000  0.20000 1.0 
 -0.25000  0.00000  0.25000 1.0 
 -0.30000  0.00000  0.30000 1.0 
 -0.35000  0.00000  0.35000 1.0 
 -0.40000  0.00000  0.40000 1.0 
 -0.45000  0.00000  0.45000 1.0 
 -0.50000  0.00000  0.50000 1.0  # Z
 -0.50000 -0.05000  0.50000 1.0
 -0.50000 -0.10000  0.50000 1.0
 -0.50000 -0.15000  0.50000 1.0
 -0.50000 -0.20000  0.50000 1.0
 -0.50000 -0.25000  0.50000 1.0
 -0.50000 -0.30000  0.50000 1.0
 -0.50000 -0.35000  0.50000 1.0
 -0.50000 -0.40000  0.50000 1.0
 -0.50000 -0.45000  0.50000 1.0
 -0.50000 -0.50000  0.50000 1.0  # N
 -0.45000 -0.45000  0.45000 1.0
 -0.40000 -0.40000  0.40000 1.0 
 -0.35000 -0.35000  0.35000 1.0
 -0.30000 -0.30000  0.30000 1.0
 -0.25000 -0.25000  0.25000 1.0
 -0.20000 -0.20000  0.20000 1.0
 -0.15000 -0.15000  0.15000 1.0
 -0.10000 -0.10000  0.10000 1.0
 -0.05000 -0.05000  0.05000 1.0
  0.00000  0.00000  0.00000 1.0  # $\Gamma$
  0.00000  0.00000  0.05000 1.0 
  0.00000  0.00000  0.10000 1.0 
  0.00000  0.00000  0.15000 1.0 
  0.00000  0.00000  0.20000 1.0 
  0.00000  0.00000  0.25000 1.0 
  0.00000  0.00000  0.30000 1.0 
  0.00000  0.00000  0.35000 1.0 
  0.00000  0.00000  0.40000 1.0
  0.00000  0.00000  0.45000 1.0 
  0.00000  0.00000  0.50000 1.0  # M
  0.00000 -0.05000  0.50000 1.0
  0.00000 -0.10000  0.50000 1.0
  0.00000 -0.15000  0.50000 1.0
  0.00000 -0.20000  0.50000 1.0
  0.00000 -0.25000  0.50000 1.0
  0.00000 -0.30000  0.50000 1.0
  0.00000 -0.35000  0.50000 1.0
  0.00000 -0.40000  0.50000 1.0
  0.00000 -0.45000  0.50000 1.0
  0.00000 -0.50000  0.50000 1.0  # R
  0.00000 -0.45000  0.45000 1.0
  0.00000 -0.40000  0.40000 1.0
  0.00000 -0.35000  0.35000 1.0
  0.00000 -0.30000  0.30000 1.0
  0.00000 -0.25000  0.25000 1.0
  0.00000 -0.20000  0.20000 1.0
  0.00000 -0.15000  0.15000 1.0
  0.00000 -0.10000  0.10000 1.0
  0.00000 -0.50000  0.05000 1.0
  0.00000  0.00000  0.00000 1.0  # $\Gamma$
