&CONTROL
  calculation = 'bands',
  prefix = 'kaol',
  pseudo_dir = '/home/rygrim1/bennettj_user/Work/Lead_oxides/PbCO3_14/Surface_calcs/QE_calcs/QE-PSPs/',
  outdir = './temp',
  etot_conv_thr=1.D-7,
  forc_conv_thr=2.D-6,
  verbosity=high,
/
&SYSTEM
  ibrav = 14,
  celldm(1) = 19.56952,
  celldm(2) = 0.868195,
  celldm(3) = 2.483480,
  celldm(4) = -0.0281,
  celldm(5) = -0.2552,
  celldm(6) =  0.0039,
  nat = 72,
  ntyp = 5,
  nbnd = 312,
  ecutwfc = 40,
  ecutrho = 320,
  occupations = 'smearing',
  smearing = 'gaussian',
  degauss = 0.02,
  input_dft = 'wc',
/
&ELECTRONS
  electron_maxstep = 150,
  diagonalization = 'david',
  conv_thr = 1.0d-7,
  mixing_beta = 0.20,
/
&IONS
/
ATOMIC_SPECIES
Al   26.982  al_pbe_v1.uspp.F.UPF
Si   28.085  si_pbe_v1.uspp.F.UPF
O    15.9999  o_pbe_v1.2.uspp.F.UPF
H     1.0078  h_pbe_v1.4.uspp.F.UPF
S    32.065   s_pbe_v1.4.uspp.F.UPF

ATOMIC_POSITIONS {crystal}
Al       0.188836576   0.486653566   0.134629595
Al       0.190991134   0.815958955   0.129934490
Al       0.429818907  -0.007704544   0.132127082
Al       0.437248883   0.323615311   0.133368358
Al       0.686908391   0.491337497   0.132675522
Al       0.671500508   0.827101262   0.130823523
Al       0.914654878  -0.001908524   0.133197226
Al       0.937390599   0.327100988   0.135121411
Si       0.032821119   0.329101034   0.024265995
Si       0.040160530   0.657041305   0.023588470
Si       0.280343699   0.830411973   0.021529275
Si       0.287960064   0.158523260   0.023258094
Si       0.532064036   0.329750243   0.023738411
Si       0.539517324   0.657099776   0.022988461
Si       0.780654095   0.831194923   0.023932600
Si       0.790076478   0.159586791   0.024006751
O        0.062333105   0.344550142   0.090107760
O        0.101699513   0.653609036   0.089083765
O        0.043318021   0.490227150  -0.001586639
O        0.134053982   0.213293040   0.005887650
O        0.129312467   0.766193300  -0.002812424
O        0.306491070   0.848417827   0.087262922
O        0.561134176   0.348656511   0.089353486
O        0.599285886   0.653343544   0.088673235
O        0.545321166   0.489937001  -0.002265826
O        0.634219039   0.209119812   0.007851514
O        0.630838273   0.766705915  -0.002242164
O        0.802697108   0.852347504   0.089501415
O        0.344230284   0.155044075   0.088882238
O        0.293118283  -0.008303055  -0.003118970
O        0.384381504   0.710363537   0.006954348
O        0.381708271   0.266234674  -0.001459274
O        0.056664417  -0.048384050   0.101089905
O        0.847799374   0.158292744   0.089712487
O        0.796735236  -0.008388014  -0.000931661
O        0.885220042   0.710781090   0.010159636
O        0.881097169   0.268121432  -0.001198996
O        0.551562735  -0.040541644   0.088493770
O        0.008264409   0.154319204   0.174092928
O        0.062799099   0.462538460   0.174016737
O        0.004593097   0.814981594   0.179095328
O        0.314022339   0.463149865   0.093026101
O        0.264498828   0.663638687   0.175077550
O        0.297190913  -0.030987915   0.170708665
O        0.311389481   0.347913716   0.174107788
O        0.520218129   0.155785183   0.172396459
O        0.558368905   0.473195122   0.172446172
O        0.543426222   0.841847189   0.170497256
O        0.813392359   0.461284445   0.092250161
O        0.778317415   0.670615444   0.171321579
O        0.781347441  -0.016514692   0.172137844
O        0.809566248   0.359611056   0.174888881
H        0.101809797   0.047047136   0.098915992
H        0.065239642   0.140644186   0.210555611
H        0.066641552   0.515890889   0.208402719
H       -0.074534872   0.738604612   0.171394918
H        0.345771225   0.547633647   0.076296845
H        0.253868436   0.668056081   0.212313128
H        0.313825863  -0.025452849   0.210008604
H        0.276384206   0.259073004   0.187072576
H        0.580617297   0.040260557   0.069142152
H        0.616658952   0.136568213   0.178259328
H        0.577064234   0.476631847   0.211680205
H        0.497185756   0.750029364   0.175699698
H        0.841994200   0.540924783   0.072319204
H        0.792468563   0.679331472   0.210691614
H        0.820117366  -0.042493201   0.210297745
H        0.787694676   0.277548702   0.195285238
O       -0.061428393   0.843737958   0.265010707
S        0.061729060   0.826491684   0.247699547
O        0.148709358   0.956182272   0.255164231
O        0.129723367   0.683998481   0.259868953
K_POINTS 
101

  0.00000 -0.50000  0.00000 1.0  # X
  0.00000 -0.45000  0.00000 1.0
  0.00000 -0.40000  0.00000 1.0
  0.00000 -0.35000  0.00000 1.0
  0.00000 -0.30000  0.00000 1.0
  0.00000 -0.25000  0.00000 1.0
  0.00000 -0.20000  0.00000 1.0
  0.00000 -0.15000  0.00000 1.0
  0.00000 -0.10000  0.00000 1.0
  0.00000 -0.05000  0.00000 1.0
  0.00000  0.00000  0.00000 1.0  # $\Gamma$
  0.05000  0.00000  0.00000 1.0
  0.10000  0.00000  0.00000 1.0
  0.15000  0.00000  0.00000 1.0 
  0.20000  0.00000  0.00000 1.0 
  0.25000  0.00000  0.00000 1.0 
  0.30000  0.00000  0.00000 1.0 
  0.35000  0.00000  0.00000 1.0 
  0.40000  0.00000  0.00000 1.0
  0.45000  0.00000  0.00000 1.0 
  0.50000  0.00000  0.00000 1.0  # Y
  0.50000 -0.05000  0.00000 1.0 
  0.50000 -0.10000  0.00000 1.0 
  0.50000 -0.15000  0.00000 1.0 
  0.50000 -0.20000  0.00000 1.0 
  0.50000 -0.25000  0.00000 1.0 
  0.50000 -0.30000  0.00000 1.0 
  0.50000 -0.35000  0.00000 1.0 
  0.50000 -0.40000  0.00000 1.0 
  0.50000 -0.45000  0.00000 1.0 
  0.50000 -0.50000  0.00000 1.0  # L
  0.45000 -0.45000  0.00000 1.0 
  0.40000 -0.40000  0.00000 1.0 
  0.35000 -0.35000  0.00000 1.0 
  0.30000 -0.30000  0.00000 1.0 
  0.25000 -0.25000  0.00000 1.0 
  0.20000 -0.20000  0.00000 1.0 
  0.15000 -0.15000  0.00000 1.0 
  0.10000 -0.10000  0.00000 1.0 
  0.05000 -0.05000  0.00000 1.0 
  0.00000  0.00000  0.00000 1.0  # $\Gamma$
 -0.05000  0.00000  0.05000 1.0 
 -0.10000  0.00000  0.10000 1.0 
 -0.15000  0.00000  0.15000 1.0 
 -0.20000  0.00000  0.20000 1.0 
 -0.25000  0.00000  0.25000 1.0 
 -0.30000  0.00000  0.30000 1.0 
 -0.35000  0.00000  0.35000 1.0 
 -0.40000  0.00000  0.40000 1.0 
 -0.45000  0.00000  0.45000 1.0 
 -0.50000  0.00000  0.50000 1.0  # Z
 -0.50000 -0.05000  0.50000 1.0
 -0.50000 -0.10000  0.50000 1.0
 -0.50000 -0.15000  0.50000 1.0
 -0.50000 -0.20000  0.50000 1.0
 -0.50000 -0.25000  0.50000 1.0
 -0.50000 -0.30000  0.50000 1.0
 -0.50000 -0.35000  0.50000 1.0
 -0.50000 -0.40000  0.50000 1.0
 -0.50000 -0.45000  0.50000 1.0
 -0.50000 -0.50000  0.50000 1.0  # N
 -0.45000 -0.45000  0.45000 1.0
 -0.40000 -0.40000  0.40000 1.0 
 -0.35000 -0.35000  0.35000 1.0
 -0.30000 -0.30000  0.30000 1.0
 -0.25000 -0.25000  0.25000 1.0
 -0.20000 -0.20000  0.20000 1.0
 -0.15000 -0.15000  0.15000 1.0
 -0.10000 -0.10000  0.10000 1.0
 -0.05000 -0.05000  0.05000 1.0
  0.00000  0.00000  0.00000 1.0  # $\Gamma$
  0.00000  0.00000  0.05000 1.0 
  0.00000  0.00000  0.10000 1.0 
  0.00000  0.00000  0.15000 1.0 
  0.00000  0.00000  0.20000 1.0 
  0.00000  0.00000  0.25000 1.0 
  0.00000  0.00000  0.30000 1.0 
  0.00000  0.00000  0.35000 1.0 
  0.00000  0.00000  0.40000 1.0
  0.00000  0.00000  0.45000 1.0 
  0.00000  0.00000  0.50000 1.0  # M
  0.00000 -0.05000  0.50000 1.0
  0.00000 -0.10000  0.50000 1.0
  0.00000 -0.15000  0.50000 1.0
  0.00000 -0.20000  0.50000 1.0
  0.00000 -0.25000  0.50000 1.0
  0.00000 -0.30000  0.50000 1.0
  0.00000 -0.35000  0.50000 1.0
  0.00000 -0.40000  0.50000 1.0
  0.00000 -0.45000  0.50000 1.0
  0.00000 -0.50000  0.50000 1.0  # R
  0.00000 -0.45000  0.45000 1.0
  0.00000 -0.40000  0.40000 1.0
  0.00000 -0.35000  0.35000 1.0
  0.00000 -0.30000  0.30000 1.0
  0.00000 -0.25000  0.25000 1.0
  0.00000 -0.20000  0.20000 1.0
  0.00000 -0.15000  0.15000 1.0
  0.00000 -0.10000  0.10000 1.0
  0.00000 -0.50000  0.05000 1.0
  0.00000  0.00000  0.00000 1.0  # $\Gamma$
